\ Model Baseline
\ LP format - for model browsing. Use MPS format to capture full model detail.
Maximize
  obj_KEY_SENSITIVE(25)
Subject To
 sumToOne_V4: V4_0 + V4_1 = 1
 sumToOne_V56: V56_0 + V56_1 = 1
 sumToOne_V90: V90_0 + V90_1 = 1
 sumToOne_V73: V73_0 + V73_1 = 1
 sumToOne_V107: V107_0 + V107_1 = 1
 sumToOne_V124: V124_0 + V124_1 = 1
 sumToOne_V23: V23_0 + V23_1 = 1
 sumToOne_V40: V40_0 + V40_1 = 1
 sumToOne_V5: V5_0 + V5_1 = 1
 sumToOne_V57: V57_0 + V57_1 = 1
 sumToOne_V91: V91_0 + V91_1 = 1
 sumToOne_V74: V74_0 + V74_1 = 1
 sumToOne_V108: V108_0 + V108_1 = 1
 sumToOne_V125: V125_0 + V125_1 = 1
 sumToOne_V24: V24_0 + V24_1 = 1
 sumToOne_V6: V6_0 + V6_1 = 1
 sumToOne_V41: V41_0 + V41_1 = 1
 sumToOne_V58: V58_0 + V58_1 = 1
 sumToOne_V92: V92_0 + V92_1 = 1
 sumToOne_V7: V7_0 + V7_1 = 1
 sumToOne_V75: V75_0 + V75_1 = 1
 sumToOne_V109: V109_0 + V109_1 = 1
 sumToOne_V126: V126_0 + V126_1 = 1
 sumToOne_V25: V25_0 + V25_1 = 1
 sumToOne_V42: V42_0 + V42_1 = 1
 sumToOne_V8: V8_0 + V8_1 = 1
 sumToOne_V59: V59_0 + V59_1 = 1
 sumToOne_V93: V93_0 + V93_1 = 1
 sumToOne_V76: V76_0 + V76_1 = 1
 sumToOne_V110: V110_0 + V110_1 = 1
 sumToOne_V127: V127_0 + V127_1 = 1
 sumToOne_V26: V26_0 + V26_1 = 1
 sumToOne_V43: V43_0 + V43_1 = 1
 sumToOne_V9: V9_0 + V9_1 = 1
 sumToOne_V60: V60_0 + V60_1 = 1
 sumToOne_V94: V94_0 + V94_1 = 1
 sumToOne_V77: V77_0 + V77_1 = 1
 sumToOne_V111: V111_0 + V111_1 = 1
 sumToOne_V128: V128_0 + V128_1 = 1
 sumToOne_V27: V27_0 + V27_1 = 1
 sumToOne_V44: V44_00 + V44_01 + V44_10 + V44_11 = 1
 sumToOne_V10: V10_0 + V10_1 = 1
 sumToOne_V61: V61_0 + V61_1 = 1
 sumToOne_V95: V95_0 + V95_1 = 1
 sumToOne_V78: V78_0 + V78_1 = 1
 sumToOne_V112: V112_0 + V112_1 = 1
 sumToOne_V129: V129_0 + V129_1 = 1
 sumToOne_V28: V28_0 + V28_1 = 1
 sumToOne_V11: V11_0 + V11_1 = 1
 sumToOne_V45: V45_0 + V45_1 = 1
 sumToOne_V62: V62_0 + V62_1 = 1
 sumToOne_V96: V96_0 + V96_1 = 1
 sumToOne_V12: V12_0 + V12_1 = 1
 sumToOne_V79: V79_0 + V79_1 = 1
 sumToOne_V113: V113_0 + V113_1 = 1
 sumToOne_V130: V130_0 + V130_1 = 1
 sumToOne_V29: V29_0 + V29_1 = 1
 sumToOne_V13: V13_0 + V13_1 = 1
 sumToOne_V63: V63_0 + V63_1 = 1
 sumToOne_V97: V97_0 + V97_1 = 1
 sumToOne_V46: V46_0 + V46_1 = 1
 sumToOne_V80: V80_0 + V80_1 = 1
 sumToOne_V114: V114_0 + V114_1 = 1
 sumToOne_V131: V131_0 + V131_1 = 1
 sumToOne_V30: V30_0 + V30_1 = 1
 sumToOne_V64: V64_0 + V64_1 = 1
 sumToOne_V98: V98_0 + V98_1 = 1
 sumToOne_V47: V47_0 + V47_1 = 1
 sumToOne_V81: V81_0 + V81_1 = 1
 sumToOne_V115: V115_0 + V115_1 = 1
 sumToOne_V14: V14_0 + V14_1 = 1
 sumToOne_V31: V31_0 + V31_1 = 1
 sumToOne_V132: V132_0 + V132_1 = 1
 sumToOne_V65: V65_0 + V65_1 = 1
 sumToOne_V89: V89_0 + V89_1 = 1
 sumToOne_V48: V48_0 + V48_1 = 1
 sumToOne_V82: V82_0 + V82_1 = 1
 sumToOne_V99: V99_0 + V99_1 = 1
 sumToOne_V116: V116_0 + V116_1 = 1
 sumToOne_V32: V32_0 + V32_1 = 1
 sumToOne_V133: V133_0 + V133_1 = 1
 sumToOne_V15: V15_0 + V15_1 = 1
 sumToOne_V66: V66_0 + V66_1 = 1
 sumToOne_V100: V100_0 + V100_1 = 1
 sumToOne_V49: V49_0 + V49_1 = 1
 sumToOne_V83: V83_0 + V83_1 = 1
 sumToOne_V117: V117_0 + V117_1 = 1
 sumToOne_V134: V134_0 + V134_1 = 1
 sumToOne_V33: V33_0 + V33_1 = 1
 sumToOne_V16: V16_0 + V16_1 = 1
 sumToOne_V67: V67_0 + V67_1 = 1
 sumToOne_V101: V101_0 + V101_1 = 1
 sumToOne_V50: V50_0 + V50_1 = 1
 sumToOne_V84: V84_0 + V84_1 = 1
 sumToOne_V118: V118_0 + V118_1 = 1
 sumToOne_V135: V135_0 + V135_1 = 1
 sumToOne_V34: V34_0 + V34_1 = 1
 sumToOne_V17: V17_0 + V17_1 = 1
 sumToOne_V68: V68_0 + V68_1 = 1
 sumToOne_V102: V102_0 + V102_1 = 1
 sumToOne_V51: V51_0 + V51_1 = 1
 sumToOne_V85: V85_0 + V85_1 = 1
 sumToOne_V119: V119_0 + V119_1 = 1
 sumToOne_V136: V136_0 + V136_1 = 1
 sumToOne_V35: V35_0 + V35_1 = 1
 sumToOne_V123: V123_0 + V123_1 = 1
 sumToOne_V18: V18_0 + V18_1 = 1
 sumToOne_V1: V1_0 + V1_1 = 1
 sumToOne_V69: V69_0 + V69_1 = 1
 sumToOne_V103: V103_0 + V103_1 = 1
 sumToOne_V52: V52_0 + V52_1 = 1
 sumToOne_V86: V86_0 + V86_1 = 1
 sumToOne_V120: V120_0 + V120_1 = 1
 sumToOne_V36: V36_0 + V36_1 = 1
 sumToOne_V19: V19_0 + V19_1 = 1
 sumToOne_V70: V70_0 + V70_1 = 1
 sumToOne_V104: V104_0 + V104_1 = 1
 sumToOne_V53: V53_0 + V53_1 = 1
 sumToOne_V0: V0_0 + V0_1 = 1
 sumToOne_V87: V87_0 + V87_1 = 1
 sumToOne_V121: V121_0 + V121_1 = 1
 sumToOne_V37: V37_0 + V37_1 = 1
 sumToOne_V20: V20_0 + V20_1 = 1
 sumToOne_V71: V71_0 + V71_1 = 1
 sumToOne_V105: V105_0 + V105_1 = 1
 sumToOne_V54: V54_0 + V54_1 = 1
 sumToOne_V88: V88_0 + V88_1 = 1
 sumToOne_V122: V122_0 + V122_1 = 1
 sumToOne_V2: V2_0 + V2_1 = 1
 sumToOne_V38: V38_0 + V38_1 = 1
 sumToOne_V21: V21_0 + V21_1 = 1
 sumToOne_V3: V3_0 + V3_1 = 1
 sumToOne_V72: V72_0 + V72_1 = 1
 sumToOne_V106: V106_0 + V106_1 = 1
 sumToOne_V55: V55_0 + V55_1 = 1
 sumToOne_V39: V39_0 + V39_1 = 1
 sumToOne_V22: V22_0 + V22_1 = 1
 c_share(2,52): V4_1 = 0.495274
 c_load_assign(32,8): V56_1 = 0.131165
 c_andor_assign_right(55,54): V90_1 = 0.674127
 c_BV_DIFF_REC(41,81,1): V73_1 = 0.385642
 c_load_assign(67,9): V107_1 = 0.413472
 c_store_assign(6,116): V124_1 = 0.85287
 c_share(50,49): V23_1 = 0.081976
 c_share(19,19): V40_1 = 0.691779
 c_share(2,18): V5_1 = 0.559623
 c_andor_assign_left(33,70): V57_1 = 0.871338
 c_BV_DIFF_REC(54,53,1): V91_1 = 0.706658
 c_store_assign(52,82): V74_1 = 0.152449
 c_load_assign(68,18): V108_1 = 0.093123
 c_load_assign(118,19): V125_1 = 0.481249
 c_share(51,52): V24_1 = 0.701248
 c_share(4,8): V6_1 = 0.033292
 c_share(19,20): V41_1 = 0.682796
 c_andor_assign_right(33,32): V58_1 = 0.702118
 c_store_assign(16,55): V92_1 = 0.178115
 c_share(4,50): V7_1 = 0.837412
 c_load_assign(84,49): V75_1 = 0.033036
 c_andor_assign_left(69,67): V109_1 = 0.760069
 c_load_assign(80,20): V126_1 = 0.77558
 c_share(51,53): V25_1 = 0.873547
 c_share(20,6): V42_1 = 0.774875
 c_share(5,4): V8_1 = 0.851964
 c_BV_DIFF_REC(70,32,1): V59_1 = 0.931447
 c_load_assign(57,53): V93_1 = 0.880062
 c_load_assign(85,52): V76_1 = 0.858727
 c_andor_assign_right(69,68): V110_1 = 0.907527
 c_xor_assign_left(81,118): V127_1 = 0.825148
 c_share(52,5): V26_1 = 0.061686
 c_share(20,19): V43_1 = 0.247609
 c_share(5,8): V9_1 = 0.537015
 c_store_assign(50,33): V60_1 = 0.934088
 c_load_assign(97,16): V94_1 = 0.402448
 c_xor_assign_left(86,84): V77_1 = 0.480108
 c_BV_DIFF_REC(67,68,1): V111_1 = 0.077802
 c_xor_assign_right(81,80): V128_1 = 0.168365
 c_share(52,53): V27_1 = 0.054425
 c_KEY_SENSITIVE(1): V44_10 + V44_11 = 0.162164
 c_load_assign(25,1): V44_01 + V44_11 = 0.160605
 c_share(5,9): V10_1 = 0.83984
 c_load_assign(35,3): V61_1 = 0.556918
 c_xor_assign_left(98,57): V95_1 = 0.801641
 c_xor_assign_right(86,85): V78_1 = 0.719906
 c_store_assign(19,69): V112_1 = 0.633282
 c_BV_DIFF_REC(80,118,1): V129_1 = 0.233464
 c_share(53,5): V28_1 = 0.83379
 c_share(5,54): V11_1 = 0.162391
 c_RAND(2): V45_1 = 0.544098
 c_load_assign(36,50): V62_1 = 0.013667
 c_xor_assign_right(98,97): V96_1 = 0.262597
 c_share(5,16): V12_1 = 0.653804
 c_BV_DIFF_REC(84,85,1): V79_1 = 0.599569
 c_load_assign(71,17): V113_1 = 0.972837
 c_store_assign(7,81): V130_1 = 0.472807
 c_share(53,54): V29_1 = 0.418551
 c_share(5,19): V13_1 = 0.26887
 c_xor_assign_left(37,35): V63_1 = 0.957782
 c_BV_DIFF_REC(57,97,1): V97_1 = 0.744405
 c_RAND(3): V46_1 = 0.579961
 c_store_assign(53,86): V80_1 = 0.205568
 c_load_assign(72,19): V114_1 = 0.665743
 c_load_assign(83,6): V131_1 = 0.703521
 c_share(54,16): V30_1 = 0.752433
 c_xor_assign_right(37,36): V64_1 = 0.764579
 c_store_assign(17,98): V98_1 = 0.818428
 c_RAND(4): V47_1 = 0.024226
 c_load_assign(49,5): V81_1 = 0.895776
 c_xor_assign_left(73,71): V115_1 = 0.656035
 c_share(6,7): V14_1 = 0.099867
 c_share(54,17): V31_1 = 0.277485
 c_load_assign(84,7): V132_1 = 0.753948
 c_BV_DIFF_REC(35,36,1): V65_1 = 0.937098
 c_andor_assign_left(55,53): V89_1 = 0.76554
 c_load_assign(65,2): V48_1 = 0.274329
 c_load_assign(50,4): V82_1 = 0.565951
 c_load_assign(100,2): V99_1 = 0.136752
 c_xor_assign_right(73,72): V116_1 = 0.947593
 c_share(16,2): V32_1 = 0.151485
 c_xor_assign_left(85,83): V133_1 = 0.146994
 c_share(6,19): V15_1 = 0.344496
 c_store_assign(49,37): V66_1 = 0.87171
 c_store_assign(18,100): V100_1 = 0.761057
 c_xor_assign_left(66,25): V49_1 = 0.690009
 c_xor_assign_left(51,49): V83_1 = 0.561868
 c_BV_DIFF_REC(71,72,1): V117_1 = 0.545926
 c_xor_assign_right(85,84): V134_1 = 0.881833
 c_share(16,17): V33_1 = 0.029958
 c_share(8,49): V16_1 = 0.355014
 c_load_assign(39,2): V67_1 = 0.50735
 c_load_assign(102,5): V101_1 = 0.360552
 c_xor_assign_right(66,65): V50_1 = 0.855764
 c_xor_assign_right(51,50): V84_1 = 0.793459
 c_store_assign(20,73): V118_1 = 0.704671
 c_BV_DIFF_REC(84,83,0): V135_1 = 0.219353
 c_share(17,2): V34_1 = 0.449398
 c_share(8,50): V17_1 = 0.62194
 c_store_assign(51,39): V68_1 = 0.009853
 c_load_assign(64,4): V102_1 = 0.847753
 c_BV_DIFF_REC(65,25,1): V51_1 = 0.211708
 c_BV_DIFF_REC(49,50,1): V85_1 = 0.248973
 c_load_assign(114,19): V119_1 = 0.263309
 c_BV_DIFF_REC(83,84,0): V136_1 = 0.659154
 c_share(17,18): V35_1 = 0.137628
 c_BV_DIFF_REC(115,114,1): V123_1 = 0.498385
 c_share(9,19): V18_1 = 0.411462
 c_share(1,5): V1_1 = 0.72219
 c_load_assign(41,4): V69_1 = 0.218869
 c_xor_assign_left(65,102): V103_1 = 0.311149
 c_store_assign(5,66): V52_1 = 0.095817
 c_store_assign(54,51): V86_1 = 0.536892
 c_load_assign(115,3): V120_1 = 0.541355
 c_share(18,5): V36_1 = 0.976305
 c_share(9,20): V19_1 = 0.168059
 c_load_assign(81,51): V70_1 = 0.80055
 c_xor_assign_right(65,64): V104_1 = 0.335299
 c_load_assign(68,4): V53_1 = 0.920907
 c_share(1,4): V0_1 = 0.377721
 c_load_assign(53,2): V87_1 = 0.622622
 c_xor_assign_left(116,114): V121_1 = 0.566276
 c_share(18,9): V37_1 = 0.717482
 c_share(49,2): V20_1 = 0.951543
 c_andor_assign_left(82,41): V71_1 = 0.438651
 c_BV_DIFF_REC(102,64,1): V105_1 = 0.105567
 c_store_assign(8,68): V54_1 = 0.173397
 c_load_assign(54,54): V88_1 = 0.467954
 c_xor_assign_right(116,115): V122_1 = 0.715683
 c_share(2,5): V2_1 = 0.437111
 c_share(19,6): V38_1 = 0.546856
 c_share(49,51): V21_1 = 0.607247
 c_share(2,51): V3_1 = 0.824914
 c_andor_assign_right(82,81): V72_1 = 0.738605
 c_store_assign(9,65): V106_1 = 0.242197
 c_load_assign(70,2): V55_1 = 0.05755
 c_share(19,7): V39_1 = 0.455295
 c_share(50,2): V22_1 = 0.011682
 c_aux0: - 0.628256749154 V44_11 + aux0 = 0
 c_obj_KEY_SENSITIVE(25): - aux0 + obj_KEY_SENSITIVE(25) = 0
 c_aux1: - 0.985133 V44_01 + aux1 = 0
 c_aux2: - 0.985133 V44_11 + aux2 = 0
 c_obj_assign(25,1): - aux1 - aux2 + obj_assign(25,1) = 0
Bounds
 V0_0 <= 1
 V0_1 <= 1
 V1_0 <= 1
 V1_1 <= 1
 V2_0 <= 1
 V2_1 <= 1
 V3_0 <= 1
 V3_1 <= 1
 V4_0 <= 1
 V4_1 <= 1
 V5_0 <= 1
 V5_1 <= 1
 V6_0 <= 1
 V6_1 <= 1
 V7_0 <= 1
 V7_1 <= 1
 V8_0 <= 1
 V8_1 <= 1
 V9_0 <= 1
 V9_1 <= 1
 V10_0 <= 1
 V10_1 <= 1
 V11_0 <= 1
 V11_1 <= 1
 V12_0 <= 1
 V12_1 <= 1
 V13_0 <= 1
 V13_1 <= 1
 V14_0 <= 1
 V14_1 <= 1
 V15_0 <= 1
 V15_1 <= 1
 V16_0 <= 1
 V16_1 <= 1
 V17_0 <= 1
 V17_1 <= 1
 V18_0 <= 1
 V18_1 <= 1
 V19_0 <= 1
 V19_1 <= 1
 V20_0 <= 1
 V20_1 <= 1
 V21_0 <= 1
 V21_1 <= 1
 V22_0 <= 1
 V22_1 <= 1
 V23_0 <= 1
 V23_1 <= 1
 V24_0 <= 1
 V24_1 <= 1
 V25_0 <= 1
 V25_1 <= 1
 V26_0 <= 1
 V26_1 <= 1
 V27_0 <= 1
 V27_1 <= 1
 V28_0 <= 1
 V28_1 <= 1
 V29_0 <= 1
 V29_1 <= 1
 V30_0 <= 1
 V30_1 <= 1
 V31_0 <= 1
 V31_1 <= 1
 V32_0 <= 1
 V32_1 <= 1
 V33_0 <= 1
 V33_1 <= 1
 V34_0 <= 1
 V34_1 <= 1
 V35_0 <= 1
 V35_1 <= 1
 V36_0 <= 1
 V36_1 <= 1
 V37_0 <= 1
 V37_1 <= 1
 V38_0 <= 1
 V38_1 <= 1
 V39_0 <= 1
 V39_1 <= 1
 V40_0 <= 1
 V40_1 <= 1
 V41_0 <= 1
 V41_1 <= 1
 V42_0 <= 1
 V42_1 <= 1
 V43_0 <= 1
 V43_1 <= 1
 V44_00 <= 1
 V44_01 <= 1
 V44_10 <= 1
 V44_11 <= 1
 V45_0 <= 1
 V45_1 <= 1
 V46_0 <= 1
 V46_1 <= 1
 V47_0 <= 1
 V47_1 <= 1
 V48_0 <= 1
 V48_1 <= 1
 V49_0 <= 1
 V49_1 <= 1
 V50_0 <= 1
 V50_1 <= 1
 V51_0 <= 1
 V51_1 <= 1
 V52_0 <= 1
 V52_1 <= 1
 V53_0 <= 1
 V53_1 <= 1
 V54_0 <= 1
 V54_1 <= 1
 V55_0 <= 1
 V55_1 <= 1
 V56_0 <= 1
 V56_1 <= 1
 V57_0 <= 1
 V57_1 <= 1
 V58_0 <= 1
 V58_1 <= 1
 V59_0 <= 1
 V59_1 <= 1
 V60_0 <= 1
 V60_1 <= 1
 V61_0 <= 1
 V61_1 <= 1
 V62_0 <= 1
 V62_1 <= 1
 V63_0 <= 1
 V63_1 <= 1
 V64_0 <= 1
 V64_1 <= 1
 V65_0 <= 1
 V65_1 <= 1
 V66_0 <= 1
 V66_1 <= 1
 V67_0 <= 1
 V67_1 <= 1
 V68_0 <= 1
 V68_1 <= 1
 V69_0 <= 1
 V69_1 <= 1
 V70_0 <= 1
 V70_1 <= 1
 V71_0 <= 1
 V71_1 <= 1
 V72_0 <= 1
 V72_1 <= 1
 V73_0 <= 1
 V73_1 <= 1
 V74_0 <= 1
 V74_1 <= 1
 V75_0 <= 1
 V75_1 <= 1
 V76_0 <= 1
 V76_1 <= 1
 V77_0 <= 1
 V77_1 <= 1
 V78_0 <= 1
 V78_1 <= 1
 V79_0 <= 1
 V79_1 <= 1
 V80_0 <= 1
 V80_1 <= 1
 V81_0 <= 1
 V81_1 <= 1
 V82_0 <= 1
 V82_1 <= 1
 V83_0 <= 1
 V83_1 <= 1
 V84_0 <= 1
 V84_1 <= 1
 V85_0 <= 1
 V85_1 <= 1
 V86_0 <= 1
 V86_1 <= 1
 V87_0 <= 1
 V87_1 <= 1
 V88_0 <= 1
 V88_1 <= 1
 V89_0 <= 1
 V89_1 <= 1
 V90_0 <= 1
 V90_1 <= 1
 V91_0 <= 1
 V91_1 <= 1
 V92_0 <= 1
 V92_1 <= 1
 V93_0 <= 1
 V93_1 <= 1
 V94_0 <= 1
 V94_1 <= 1
 V95_0 <= 1
 V95_1 <= 1
 V96_0 <= 1
 V96_1 <= 1
 V97_0 <= 1
 V97_1 <= 1
 V98_0 <= 1
 V98_1 <= 1
 V99_0 <= 1
 V99_1 <= 1
 V100_0 <= 1
 V100_1 <= 1
 V101_0 <= 1
 V101_1 <= 1
 V102_0 <= 1
 V102_1 <= 1
 V103_0 <= 1
 V103_1 <= 1
 V104_0 <= 1
 V104_1 <= 1
 V105_0 <= 1
 V105_1 <= 1
 V106_0 <= 1
 V106_1 <= 1
 V107_0 <= 1
 V107_1 <= 1
 V108_0 <= 1
 V108_1 <= 1
 V109_0 <= 1
 V109_1 <= 1
 V110_0 <= 1
 V110_1 <= 1
 V111_0 <= 1
 V111_1 <= 1
 V112_0 <= 1
 V112_1 <= 1
 V113_0 <= 1
 V113_1 <= 1
 V114_0 <= 1
 V114_1 <= 1
 V115_0 <= 1
 V115_1 <= 1
 V116_0 <= 1
 V116_1 <= 1
 V117_0 <= 1
 V117_1 <= 1
 V118_0 <= 1
 V118_1 <= 1
 V119_0 <= 1
 V119_1 <= 1
 V120_0 <= 1
 V120_1 <= 1
 V121_0 <= 1
 V121_1 <= 1
 V122_0 <= 1
 V122_1 <= 1
 V123_0 <= 1
 V123_1 <= 1
 V124_0 <= 1
 V124_1 <= 1
 V125_0 <= 1
 V125_1 <= 1
 V126_0 <= 1
 V126_1 <= 1
 V127_0 <= 1
 V127_1 <= 1
 V128_0 <= 1
 V128_1 <= 1
 V129_0 <= 1
 V129_1 <= 1
 V130_0 <= 1
 V130_1 <= 1
 V131_0 <= 1
 V131_1 <= 1
 V132_0 <= 1
 V132_1 <= 1
 V133_0 <= 1
 V133_1 <= 1
 V134_0 <= 1
 V134_1 <= 1
 V135_0 <= 1
 V135_1 <= 1
 V136_0 <= 1
 V136_1 <= 1
 aux0 <= 1
 obj_KEY_SENSITIVE(25) <= 1
 aux1 <= 1
 aux2 <= 1
 obj_assign(25,1) <= 1
End
